
%FILE DATA:	Soccer Computational Problem for MiniZinc Models	%
%AUTHOR:	Jack Wall	%
%CONTACT:  	116397063@umail.ucc.ie			%
%LAST UPDATE:	01/29/2020, 10:18:07						%
%DESCRIPTION: 	-16 games played with 56 games left				%

n=8; %number of teams

%Games to play
games=[|2,5|7,2|8,6|2,8|3,7|1,5|2,7|1,8|6,4|5,2|3,4|4,6|7,3|8,4|4,2|3,8|8,7|5,8|3,1|7,5|4,8|4,1|7,4|7,8|8,1|4,7|7,6|6,3|5,3|1,6|3,6|1,7|3,5|8,3|1,2|8,2|6,1|2,1|4,3|6,8|1,3|5,1|3,2|6,7|6,2|7,1|4,5|2,3|8,5|1,4|5,7|6,5|5,6|5,4|2,4|2,6|];

%Initial points
iPoints=];

%POSITION CONSTRAINTS
% [|teamID, operator, position|...]
% operators index:
%  1 for =  operator
%  2 for >  operator
%  3 for >= operator
%  4 for <  operator
%  5 for <= operator
positionConstraints=[|1,4,2|];